NAME: instance_2968
TYPE: TSP
DIMENSION: 20
EDGE_WEIGHT_TYPE: EUC_2D
NODE_COORD_SECTION
0 59.09 84.95
1 51.89 60.82
2 24.43 34.69
3 16.65 26.54
4 92.00 98.92
5 9.10 8.94
6 37.19 96.27
7 99.20 60.71
8 80.19 1.51
9 92.31 63.81
10 88.61 21.74
11 96.34 36.15
12 50.95 65.45
13 79.60 86.99
14 86.45 87.17
15 77.63 0.63
16 68.12 81.76
17 2.19 10.16
18 27.89 87.04
19 43.31 41.24
EOF
